Maximize
  - 2.0806099077438 edge_0_1_0_0 - 2.983322541675 edge_0_2_0_0
   - 1.349264909989 edge_0_3_0_0 - 2.613232846936 edge_0_5_0_0
   - 3.393674124945 edge_0_8_0_0 - 1.1983335654102 edge_0_9_0_0
   - 2.5408267248948 edge_0_12_0_0 - 1.1626391628992 edge_0_16_0_0
   - 5.1523029503204 edge_0_17_0_0 - 4.297821849847001 edge_0_20_0_0
   + 0.1647206927101587 edge_1_2_0_0 - 0.1336605884718081 edge_1_3_0_0
   - 0.0937065533072269 edge_1_4_0_0 - 0.462719726546247 edge_1_5_0_0
   - 0.0473363707547976 edge_1_6_0_0 - 0.639051934863875 edge_1_7_0_0
   - 0.3628676933021618 edge_1_9_0_0 + 0.3553699407204671 edge_2_1_0_0
   + 0.7169793459697094 edge_2_3_0_0 + 0.3800835280420043 edge_2_4_0_0
   + 0.4972101031903622 edge_2_5_0_0 + 1.345241375217954 edge_2_6_0_0
   + 0.3582831064812843 edge_2_7_0_0 - 0.2402778144060122 edge_2_8_0_0
   + 0.6631195769698331 edge_2_9_0_0 - 0.5310175817884567 edge_2_11_0_0
   - 1.07458642161753 edge_2_12_0_0 + 1.226555906626567 edge_2_13_0_0
   + 0.1234746024107223 edge_2_16_0_0 - 0.8506420813898701 edge_2_20_0_0
   + 1.075058204650517 edge_2_21_0_0 + 0.752240435929754 edge_3_1_0_0
   + 2.560316263941694 edge_3_2_0_0 + 0.1208902935266319 edge_3_4_0_0
   + 2.859876703851457 edge_3_5_0_0 + 1.950521255953738 edge_3_7_0_0
   + 0.0974533059085357 edge_3_8_0_0 + 0.920068382426303 edge_3_9_0_0
   + 0.1533124960974808 edge_3_12_0_0 + 1.109562047754346 edge_3_13_0_0
   - 0.9044288560272532 edge_3_15_0_0 + 0.0829332590395148 edge_3_16_0_0
   - 1.003507238447382 edge_3_18_0_0 - 0.3564777436344606 edge_3_20_0_0
   + 0.1993775206176608 edge_4_1_0_0 + 0.3119748429913826 edge_4_2_0_0
   + 0.1351098871845811 edge_4_3_0_0 + 0.3628597535000068 edge_4_4_0_0
   + 0.3766056214711059 edge_4_5_0_0 + 0.2346112754922763 edge_4_6_0_0
   + 0.492111125227836 edge_4_7_0_0 - 0.2081133841234083 edge_4_8_0_0
   + 0.0156233491717363 edge_4_9_0_0 + 0.1123968068751959 edge_5_1_0_0
   + 1.861325670558361 edge_5_2_0_0 + 1.794712013960763 edge_5_3_0_0
   + 3.846578751761337 edge_5_4_0_0 + 2.971278742428014 edge_5_6_0_0
   + 1.423934913847889 edge_5_7_0_0 + 0.9162769848077397 edge_5_8_0_0
   + 2.90734141579554 edge_5_9_0_0 + 0.5070734548998744 edge_5_11_0_0
   + 1.4241106460733 edge_5_12_0_0 + 2.245072609363756 edge_5_13_0_0
   - 0.2276178316332292 edge_5_14_0_0 - 0.1687293965936658 edge_5_15_0_0
   + 1.354382162683041 edge_5_16_0_0 - 0.4247816098242293 edge_5_17_0_0
   - 0.2826446497068487 edge_5_18_0_0 - 0.2207919511330859 edge_5_20_0_0
   + 3.898477869265913 edge_5_21_0_0 - 1.31301836153249 edge_6_2_0_0
   - 0.1280014037968108 edge_6_4_0_0 - 0.5036618846132184 edge_6_5_0_0
   + 0.0151757073732923 edge_6_8_0_0 + 0.1128488135031454 edge_6_9_0_0
   - 1.092065719893261 edge_7_2_0_0 - 0.4124491893851082 edge_7_5_0_0
   - 0.6350546196855358 edge_7_8_0_0 + 0.1170119059902042 edge_7_9_0_0
   - 1.589624932239151 edge_8_5_0_0 - 0.7178990634871477 edge_8_7_0_0
   + 1.590643018763145 edge_8_9_0_0 - 0.4801899239314727 edge_8_11_0_0
   + 0.6615656808326797 edge_8_12_0_0 - 0.0779031314608841 edge_8_13_0_0
   - 0.7487497641350153 edge_8_15_0_0 - 0.364199127559023 edge_8_16_0_0
   - 0.8171079799351629 edge_8_18_0_0 - 0.2933802908674655 edge_9_1_0_0
   + 0.1427177527268642 edge_9_2_0_0 + 0.3021021113316154 edge_9_3_0_0
   - 0.0593798126829886 edge_9_4_0_0 + 0.7355724771811071 edge_9_5_0_0
   + 1.415032393039115 edge_9_6_0_0 + 0.258768574216353 edge_9_7_0_0
   + 3.459648970705632 edge_9_8_0_0 + 1.107883319580993 edge_9_11_0_0
   + 2.994525027310365 edge_9_12_0_0 + 2.505782635361722 edge_9_13_0_0
   + 0.6918111020402746 edge_9_14_0_0 + 0.2523775321528223 edge_9_15_0_0
   + 1.508962621141231 edge_9_16_0_0 - 0.1851849273459728 edge_9_17_0_0
   + 0.0476752715816844 edge_9_18_0_0 + 0.3901314190718485 edge_9_20_0_0
   + 3.466623672133406 edge_9_21_0_0 + 0.0234541102497974 edge_11_14_0_0
   + 0.2772232530227241 edge_11_16_0_0 - 0.6802601791779228 edge_12_1_0_0
   - 0.36010718729565 edge_12_2_0_0 - 1.258934477244716 edge_12_3_0_0
   - 0.19922564064796 edge_12_4_0_0 - 0.64668521142854 edge_12_5_0_0
   - 0.2598689200585573 edge_12_6_0_0 - 0.6009634461755601 edge_12_7_0_0
   + 0.5048207985724359 edge_12_8_0_0 + 0.1223113884404233 edge_12_9_0_0
   + 3.621704294922122 edge_12_11_0_0 + 1.132381951034201 edge_12_13_0_0
   - 0.2481880738537277 edge_12_14_0_0 + 0.1830670805307405 edge_12_15_0_0
   + 0.8587566689256133 edge_12_16_0_0 - 0.7911795460546599 edge_12_17_0_0
   - 0.5634444139776 edge_12_18_0_0 - 0.36256529960636 edge_12_20_0_0
   + 1.848327467788728 edge_12_21_0_0 - 0.2013658013401741 edge_13_11_0_0
   - 0.4448831228235017 edge_13_12_0_0 - 0.148443845651988 edge_13_14_0_0
   - 0.1051225510285088 edge_13_16_0_0 - 0.8104699992519239 edge_14_1_0_0
   - 0.8502168421070022 edge_14_2_0_0 - 0.5572014554710597 edge_14_3_0_0
   - 0.6159978299163624 edge_14_5_0_0 - 0.5892691949203992 edge_14_7_0_0
   - 0.4581748260234333 edge_14_9_0_0 - 0.00031793 edge_14_12_0_0
   + 0.7261060937219498 edge_14_13_0_0 - 0.1172398065765255 edge_14_15_0_0
   - 0.4877391517011898 edge_14_17_0_0 - 0.5924590182120315 edge_14_18_0_0
   - 0.4826436529966109 edge_14_20_0_0 - 0.1819236519475905 edge_14_21_0_0
   - 1.569052309317345 edge_15_3_0_0 - 1.045161829107036 edge_15_12_0_0
   - 0.2024247010455466 edge_15_13_0_0 + 0.12550677126948 edge_15_14_0_0
   - 0.1214954375616542 edge_15_16_0_0 + 0.7260103734458433 edge_15_17_0_0
   + 0.1315199282585914 edge_15_18_0_0 - 0.0747981229907147 edge_15_20_0_0
   + 0.5337239902390539 edge_15_21_0_0 - 0.7442617993021188 edge_16_1_0_0
   - 0.2330952494312996 edge_16_2_0_0 - 0.0640770065569842 edge_16_3_0_0
   - 0.1938817828730958 edge_16_4_0_0 - 0.374691699684702 edge_16_5_0_0
   + 0.7857002604135052 edge_16_6_0_0 - 0.3045677233073721 edge_16_7_0_0
   + 0.678758251607257 edge_16_8_0_0 + 1.339613449262222 edge_16_9_0_0
   + 0.4873121627862402 edge_16_11_0_0 + 0.8768876408225742 edge_16_12_0_0
   + 1.137021879231658 edge_16_13_0_0 + 2.322520154671085 edge_16_14_0_0
   + 1.78713631162573 edge_16_15_0_0 + 2.090119371849469 edge_16_17_0_0
   + 1.087580015939315 edge_16_18_0_0 + 1.406489367293926 edge_16_20_0_0
   + 3.80602520440368 edge_16_21_0_0 + 0.343454364509904 edge_17_14_0_0
   + 0.7109718275739813 edge_17_15_0_0 + 0.6902079036924065 edge_17_18_0_0
   + 0.3645834304869205 edge_17_20_0_0 + 0.9032254988047174 edge_17_21_0_0
   - 1.260743822240557 edge_18_13_0_0 - 0.2149733642725003 edge_18_14_0_0
   - 0.2469877848584984 edge_18_15_0_0 - 0.1662780542988572 edge_18_16_0_0
   + 0.2257658001707288 edge_18_17_0_0 + 1.072965485207482 edge_18_20_0_0
   - 0.676573509570629 edge_18_21_0_0 - 0.3563661727782527 edge_20_1_0_0
   - 0.7296607199550486 edge_20_2_0_0 + 0.1735052177503106 edge_20_3_0_0
   - 0.7051257833457105 edge_20_4_0_0 - 0.8248560792440399 edge_20_5_0_0
   - 0.1881093831944212 edge_20_7_0_0 + 0.4146835238423755 edge_20_9_0_0
   - 0.2223220670750783 edge_20_11_0_0 + 0.0039132487146574 edge_20_12_0_0
   + 0.9563851547014153 edge_20_13_0_0 + 1.48577573555272 edge_20_14_0_0
   + 1.2666204302572 edge_20_15_0_0 + 1.538480217191555 edge_20_17_0_0
   + 2.529135754453273 edge_20_18_0_0 + 2.451770603436534 edge_20_21_0_0
   - 1.322718029694078 edge_21_18_0_0 - 0.7833803817804154 edge_21_20_0_0
Subject To
 one_parent_1: edge_0_1_0_0 + edge_2_1_0_0 + edge_3_1_0_0 + edge_4_1_0_0
   + edge_5_1_0_0 + edge_9_1_0_0 + edge_12_1_0_0 + edge_14_1_0_0
   + edge_16_1_0_0 + edge_20_1_0_0 = 1
 consume_one_flow_unit_1: flow_0_1_0_0 - flow_1_2_0_0 - flow_1_3_0_0
   - flow_1_4_0_0 - flow_1_5_0_0 - flow_1_6_0_0 - flow_1_7_0_0
   - flow_1_9_0_0 + flow_2_1_0_0 + flow_3_1_0_0 + flow_4_1_0_0
   + flow_5_1_0_0 + flow_9_1_0_0 + flow_12_1_0_0 + flow_14_1_0_0
   + flow_16_1_0_0 + flow_20_1_0_0 = 1
 one_parent_2: edge_0_2_0_0 + edge_1_2_0_0 + edge_3_2_0_0 + edge_4_2_0_0
   + edge_5_2_0_0 + edge_6_2_0_0 + edge_7_2_0_0 + edge_9_2_0_0
   + edge_12_2_0_0 + edge_14_2_0_0 + edge_16_2_0_0 + edge_20_2_0_0 = 1
 consume_one_flow_unit_2: flow_0_2_0_0 + flow_1_2_0_0 - flow_2_1_0_0
   - flow_2_3_0_0 - flow_2_4_0_0 - flow_2_5_0_0 - flow_2_6_0_0
   - flow_2_7_0_0 - flow_2_8_0_0 - flow_2_9_0_0 - flow_2_11_0_0
   - flow_2_12_0_0 - flow_2_13_0_0 - flow_2_16_0_0 - flow_2_20_0_0
   - flow_2_21_0_0 + flow_3_2_0_0 + flow_4_2_0_0 + flow_5_2_0_0
   + flow_6_2_0_0 + flow_7_2_0_0 + flow_9_2_0_0 + flow_12_2_0_0
   + flow_14_2_0_0 + flow_16_2_0_0 + flow_20_2_0_0 = 1
 one_parent_3: edge_0_3_0_0 + edge_1_3_0_0 + edge_2_3_0_0 + edge_4_3_0_0
   + edge_5_3_0_0 + edge_9_3_0_0 + edge_12_3_0_0 + edge_14_3_0_0
   + edge_15_3_0_0 + edge_16_3_0_0 + edge_20_3_0_0 = 1
 consume_one_flow_unit_3: flow_0_3_0_0 + flow_1_3_0_0 + flow_2_3_0_0
   - flow_3_1_0_0 - flow_3_2_0_0 - flow_3_4_0_0 - flow_3_5_0_0
   - flow_3_7_0_0 - flow_3_8_0_0 - flow_3_9_0_0 - flow_3_12_0_0
   - flow_3_13_0_0 - flow_3_15_0_0 - flow_3_16_0_0 - flow_3_18_0_0
   - flow_3_20_0_0 + flow_4_3_0_0 + flow_5_3_0_0 + flow_9_3_0_0
   + flow_12_3_0_0 + flow_14_3_0_0 + flow_15_3_0_0 + flow_16_3_0_0
   + flow_20_3_0_0 = 1
 one_parent_4: edge_1_4_0_0 + edge_2_4_0_0 + edge_3_4_0_0 + edge_4_4_0_0
   + edge_5_4_0_0 + edge_6_4_0_0 + edge_9_4_0_0 + edge_12_4_0_0
   + edge_16_4_0_0 + edge_20_4_0_0 = 1
 consume_one_flow_unit_4: flow_1_4_0_0 + flow_2_4_0_0 + flow_3_4_0_0
   - flow_4_1_0_0 - flow_4_2_0_0 - flow_4_3_0_0 - flow_4_5_0_0
   - flow_4_6_0_0 - flow_4_7_0_0 - flow_4_8_0_0 - flow_4_9_0_0
   + flow_5_4_0_0 + flow_6_4_0_0 + flow_9_4_0_0 + flow_12_4_0_0
   + flow_16_4_0_0 + flow_20_4_0_0 = 1
 one_parent_5: edge_0_5_0_0 + edge_1_5_0_0 + edge_2_5_0_0 + edge_3_5_0_0
   + edge_4_5_0_0 + edge_6_5_0_0 + edge_7_5_0_0 + edge_8_5_0_0
   + edge_9_5_0_0 + edge_12_5_0_0 + edge_14_5_0_0 + edge_16_5_0_0
   + edge_20_5_0_0 = 1
 consume_one_flow_unit_5: flow_0_5_0_0 + flow_1_5_0_0 + flow_2_5_0_0
   + flow_3_5_0_0 + flow_4_5_0_0 - flow_5_1_0_0 - flow_5_2_0_0
   - flow_5_3_0_0 - flow_5_4_0_0 - flow_5_6_0_0 - flow_5_7_0_0
   - flow_5_8_0_0 - flow_5_9_0_0 - flow_5_11_0_0 - flow_5_12_0_0
   - flow_5_13_0_0 - flow_5_14_0_0 - flow_5_15_0_0 - flow_5_16_0_0
   - flow_5_17_0_0 - flow_5_18_0_0 - flow_5_20_0_0 - flow_5_21_0_0
   + flow_6_5_0_0 + flow_7_5_0_0 + flow_8_5_0_0 + flow_9_5_0_0
   + flow_12_5_0_0 + flow_14_5_0_0 + flow_16_5_0_0 + flow_20_5_0_0 = 1
 one_parent_6: edge_1_6_0_0 + edge_2_6_0_0 + edge_4_6_0_0 + edge_5_6_0_0
   + edge_9_6_0_0 + edge_12_6_0_0 + edge_16_6_0_0 = 1
 consume_one_flow_unit_6: flow_1_6_0_0 + flow_2_6_0_0 + flow_4_6_0_0
   + flow_5_6_0_0 - flow_6_2_0_0 - flow_6_4_0_0 - flow_6_5_0_0
   - flow_6_8_0_0 - flow_6_9_0_0 + flow_9_6_0_0 + flow_12_6_0_0
   + flow_16_6_0_0 = 1
 one_parent_7: edge_1_7_0_0 + edge_2_7_0_0 + edge_3_7_0_0 + edge_4_7_0_0
   + edge_5_7_0_0 + edge_8_7_0_0 + edge_9_7_0_0 + edge_12_7_0_0
   + edge_14_7_0_0 + edge_16_7_0_0 + edge_20_7_0_0 = 1
 consume_one_flow_unit_7: flow_1_7_0_0 + flow_2_7_0_0 + flow_3_7_0_0
   + flow_4_7_0_0 + flow_5_7_0_0 - flow_7_2_0_0 - flow_7_5_0_0
   - flow_7_8_0_0 - flow_7_9_0_0 + flow_8_7_0_0 + flow_9_7_0_0
   + flow_12_7_0_0 + flow_14_7_0_0 + flow_16_7_0_0 + flow_20_7_0_0 = 1
 one_parent_8: edge_0_8_0_0 + edge_2_8_0_0 + edge_3_8_0_0 + edge_4_8_0_0
   + edge_5_8_0_0 + edge_6_8_0_0 + edge_7_8_0_0 + edge_9_8_0_0
   + edge_12_8_0_0 + edge_16_8_0_0 = 1
 consume_one_flow_unit_8: flow_0_8_0_0 + flow_2_8_0_0 + flow_3_8_0_0
   + flow_4_8_0_0 + flow_5_8_0_0 + flow_6_8_0_0 + flow_7_8_0_0
   - flow_8_5_0_0 - flow_8_7_0_0 - flow_8_9_0_0 - flow_8_11_0_0
   - flow_8_12_0_0 - flow_8_13_0_0 - flow_8_15_0_0 - flow_8_16_0_0
   - flow_8_18_0_0 + flow_9_8_0_0 + flow_12_8_0_0 + flow_16_8_0_0 = 1
 one_parent_9: edge_0_9_0_0 + edge_1_9_0_0 + edge_2_9_0_0 + edge_3_9_0_0
   + edge_4_9_0_0 + edge_5_9_0_0 + edge_6_9_0_0 + edge_7_9_0_0
   + edge_8_9_0_0 + edge_12_9_0_0 + edge_14_9_0_0 + edge_16_9_0_0
   + edge_20_9_0_0 = 1
 consume_one_flow_unit_9: flow_0_9_0_0 + flow_1_9_0_0 + flow_2_9_0_0
   + flow_3_9_0_0 + flow_4_9_0_0 + flow_5_9_0_0 + flow_6_9_0_0
   + flow_7_9_0_0 + flow_8_9_0_0 - flow_9_1_0_0 - flow_9_2_0_0
   - flow_9_3_0_0 - flow_9_4_0_0 - flow_9_5_0_0 - flow_9_6_0_0
   - flow_9_7_0_0 - flow_9_8_0_0 - flow_9_11_0_0 - flow_9_12_0_0
   - flow_9_13_0_0 - flow_9_14_0_0 - flow_9_15_0_0 - flow_9_16_0_0
   - flow_9_17_0_0 - flow_9_18_0_0 - flow_9_20_0_0 - flow_9_21_0_0
   + flow_12_9_0_0 + flow_14_9_0_0 + flow_16_9_0_0 + flow_20_9_0_0 = 1
 one_parent_10: = 1
 consume_one_flow_unit_10: = 1
 one_parent_11: edge_2_11_0_0 + edge_5_11_0_0 + edge_8_11_0_0
   + edge_9_11_0_0 + edge_12_11_0_0 + edge_13_11_0_0 + edge_16_11_0_0
   + edge_20_11_0_0 = 1
 consume_one_flow_unit_11: flow_2_11_0_0 + flow_5_11_0_0 + flow_8_11_0_0
   + flow_9_11_0_0 - flow_11_14_0_0 - flow_11_16_0_0 + flow_12_11_0_0
   + flow_13_11_0_0 + flow_16_11_0_0 + flow_20_11_0_0 = 1
 one_parent_12: edge_0_12_0_0 + edge_2_12_0_0 + edge_3_12_0_0
   + edge_5_12_0_0 + edge_8_12_0_0 + edge_9_12_0_0 + edge_13_12_0_0
   + edge_14_12_0_0 + edge_15_12_0_0 + edge_16_12_0_0 + edge_20_12_0_0 = 1
 consume_one_flow_unit_12: flow_0_12_0_0 + flow_2_12_0_0 + flow_3_12_0_0
   + flow_5_12_0_0 + flow_8_12_0_0 + flow_9_12_0_0 - flow_12_1_0_0
   - flow_12_2_0_0 - flow_12_3_0_0 - flow_12_4_0_0 - flow_12_5_0_0
   - flow_12_6_0_0 - flow_12_7_0_0 - flow_12_8_0_0 - flow_12_9_0_0
   - flow_12_11_0_0 - flow_12_13_0_0 - flow_12_14_0_0 - flow_12_15_0_0
   - flow_12_16_0_0 - flow_12_17_0_0 - flow_12_18_0_0 - flow_12_20_0_0
   - flow_12_21_0_0 + flow_13_12_0_0 + flow_14_12_0_0 + flow_15_12_0_0
   + flow_16_12_0_0 + flow_20_12_0_0 = 1
 one_parent_13: edge_2_13_0_0 + edge_3_13_0_0 + edge_5_13_0_0
   + edge_8_13_0_0 + edge_9_13_0_0 + edge_12_13_0_0 + edge_14_13_0_0
   + edge_15_13_0_0 + edge_16_13_0_0 + edge_18_13_0_0 + edge_20_13_0_0 = 1
 consume_one_flow_unit_13: flow_2_13_0_0 + flow_3_13_0_0 + flow_5_13_0_0
   + flow_8_13_0_0 + flow_9_13_0_0 + flow_12_13_0_0 - flow_13_11_0_0
   - flow_13_12_0_0 - flow_13_14_0_0 - flow_13_16_0_0 + flow_14_13_0_0
   + flow_15_13_0_0 + flow_16_13_0_0 + flow_18_13_0_0 + flow_20_13_0_0 = 1
 one_parent_14: edge_5_14_0_0 + edge_9_14_0_0 + edge_11_14_0_0
   + edge_12_14_0_0 + edge_13_14_0_0 + edge_15_14_0_0 + edge_16_14_0_0
   + edge_17_14_0_0 + edge_18_14_0_0 + edge_20_14_0_0 = 1
 consume_one_flow_unit_14: flow_5_14_0_0 + flow_9_14_0_0 + flow_11_14_0_0
   + flow_12_14_0_0 + flow_13_14_0_0 - flow_14_1_0_0 - flow_14_2_0_0
   - flow_14_3_0_0 - flow_14_5_0_0 - flow_14_7_0_0 - flow_14_9_0_0
   - flow_14_12_0_0 - flow_14_13_0_0 - flow_14_15_0_0 - flow_14_17_0_0
   - flow_14_18_0_0 - flow_14_20_0_0 - flow_14_21_0_0 + flow_15_14_0_0
   + flow_16_14_0_0 + flow_17_14_0_0 + flow_18_14_0_0 + flow_20_14_0_0 = 1
 one_parent_15: edge_3_15_0_0 + edge_5_15_0_0 + edge_8_15_0_0
   + edge_9_15_0_0 + edge_12_15_0_0 + edge_14_15_0_0 + edge_16_15_0_0
   + edge_17_15_0_0 + edge_18_15_0_0 + edge_20_15_0_0 = 1
 consume_one_flow_unit_15: flow_3_15_0_0 + flow_5_15_0_0 + flow_8_15_0_0
   + flow_9_15_0_0 + flow_12_15_0_0 + flow_14_15_0_0 - flow_15_3_0_0
   - flow_15_12_0_0 - flow_15_13_0_0 - flow_15_14_0_0 - flow_15_16_0_0
   - flow_15_17_0_0 - flow_15_18_0_0 - flow_15_20_0_0 - flow_15_21_0_0
   + flow_16_15_0_0 + flow_17_15_0_0 + flow_18_15_0_0 + flow_20_15_0_0 = 1
 one_parent_16: edge_0_16_0_0 + edge_2_16_0_0 + edge_3_16_0_0
   + edge_5_16_0_0 + edge_8_16_0_0 + edge_9_16_0_0 + edge_11_16_0_0
   + edge_12_16_0_0 + edge_13_16_0_0 + edge_15_16_0_0 + edge_18_16_0_0 = 1
 consume_one_flow_unit_16: flow_0_16_0_0 + flow_2_16_0_0 + flow_3_16_0_0
   + flow_5_16_0_0 + flow_8_16_0_0 + flow_9_16_0_0 + flow_11_16_0_0
   + flow_12_16_0_0 + flow_13_16_0_0 + flow_15_16_0_0 - flow_16_1_0_0
   - flow_16_2_0_0 - flow_16_3_0_0 - flow_16_4_0_0 - flow_16_5_0_0
   - flow_16_6_0_0 - flow_16_7_0_0 - flow_16_8_0_0 - flow_16_9_0_0
   - flow_16_11_0_0 - flow_16_12_0_0 - flow_16_13_0_0 - flow_16_14_0_0
   - flow_16_15_0_0 - flow_16_17_0_0 - flow_16_18_0_0 - flow_16_20_0_0
   - flow_16_21_0_0 + flow_18_16_0_0 = 1
 one_parent_17: edge_0_17_0_0 + edge_5_17_0_0 + edge_9_17_0_0
   + edge_12_17_0_0 + edge_14_17_0_0 + edge_15_17_0_0 + edge_16_17_0_0
   + edge_18_17_0_0 + edge_20_17_0_0 = 1
 consume_one_flow_unit_17: flow_0_17_0_0 + flow_5_17_0_0 + flow_9_17_0_0
   + flow_12_17_0_0 + flow_14_17_0_0 + flow_15_17_0_0 + flow_16_17_0_0
   - flow_17_14_0_0 - flow_17_15_0_0 - flow_17_18_0_0 - flow_17_20_0_0
   - flow_17_21_0_0 + flow_18_17_0_0 + flow_20_17_0_0 = 1
 one_parent_18: edge_3_18_0_0 + edge_5_18_0_0 + edge_8_18_0_0
   + edge_9_18_0_0 + edge_12_18_0_0 + edge_14_18_0_0 + edge_15_18_0_0
   + edge_16_18_0_0 + edge_17_18_0_0 + edge_20_18_0_0 + edge_21_18_0_0 = 1
 consume_one_flow_unit_18: flow_3_18_0_0 + flow_5_18_0_0 + flow_8_18_0_0
   + flow_9_18_0_0 + flow_12_18_0_0 + flow_14_18_0_0 + flow_15_18_0_0
   + flow_16_18_0_0 + flow_17_18_0_0 - flow_18_13_0_0 - flow_18_14_0_0
   - flow_18_15_0_0 - flow_18_16_0_0 - flow_18_17_0_0 - flow_18_20_0_0
   - flow_18_21_0_0 + flow_20_18_0_0 + flow_21_18_0_0 = 1
 one_parent_19: = 1
 consume_one_flow_unit_19: = 1
 one_parent_20: edge_0_20_0_0 + edge_2_20_0_0 + edge_3_20_0_0
   + edge_5_20_0_0 + edge_9_20_0_0 + edge_12_20_0_0 + edge_14_20_0_0
   + edge_15_20_0_0 + edge_16_20_0_0 + edge_17_20_0_0 + edge_18_20_0_0
   + edge_21_20_0_0 = 1
 consume_one_flow_unit_20: flow_0_20_0_0 + flow_2_20_0_0 + flow_3_20_0_0
   + flow_5_20_0_0 + flow_9_20_0_0 + flow_12_20_0_0 + flow_14_20_0_0
   + flow_15_20_0_0 + flow_16_20_0_0 + flow_17_20_0_0 + flow_18_20_0_0
   - flow_20_1_0_0 - flow_20_2_0_0 - flow_20_3_0_0 - flow_20_4_0_0
   - flow_20_5_0_0 - flow_20_7_0_0 - flow_20_9_0_0 - flow_20_11_0_0
   - flow_20_12_0_0 - flow_20_13_0_0 - flow_20_14_0_0 - flow_20_15_0_0
   - flow_20_17_0_0 - flow_20_18_0_0 - flow_20_21_0_0 + flow_21_20_0_0 = 1
 one_parent_21: edge_2_21_0_0 + edge_5_21_0_0 + edge_9_21_0_0
   + edge_12_21_0_0 + edge_14_21_0_0 + edge_15_21_0_0 + edge_16_21_0_0
   + edge_17_21_0_0 + edge_18_21_0_0 + edge_20_21_0_0 = 1
 consume_one_flow_unit_21: flow_2_21_0_0 + flow_5_21_0_0 + flow_9_21_0_0
   + flow_12_21_0_0 + flow_14_21_0_0 + flow_15_21_0_0 + flow_16_21_0_0
   + flow_17_21_0_0 + flow_18_21_0_0 + flow_20_21_0_0 - flow_21_18_0_0
   - flow_21_20_0_0 = 1
 root_flow: flow_0_1_0_0 + flow_0_2_0_0 + flow_0_3_0_0 + flow_0_5_0_0
   + flow_0_8_0_0 + flow_0_9_0_0 + flow_0_12_0_0 + flow_0_16_0_0
   + flow_0_17_0_0 + flow_0_20_0_0 = 21
 inactive_no_flow_0_1_0_0: flow_0_1_0_0 - 1000 edge_0_1_0_0 <= 0
 inactive_no_flow_0_2_0_0: flow_0_2_0_0 - 1000 edge_0_2_0_0 <= 0
 inactive_no_flow_0_3_0_0: flow_0_3_0_0 - 1000 edge_0_3_0_0 <= 0
 inactive_no_flow_0_5_0_0: flow_0_5_0_0 - 1000 edge_0_5_0_0 <= 0
 inactive_no_flow_0_8_0_0: flow_0_8_0_0 - 1000 edge_0_8_0_0 <= 0
 inactive_no_flow_0_9_0_0: flow_0_9_0_0 - 1000 edge_0_9_0_0 <= 0
 inactive_no_flow_0_12_0_0: flow_0_12_0_0 - 1000 edge_0_12_0_0 <= 0
 inactive_no_flow_0_16_0_0: flow_0_16_0_0 - 1000 edge_0_16_0_0 <= 0
 inactive_no_flow_0_17_0_0: flow_0_17_0_0 - 1000 edge_0_17_0_0 <= 0
 inactive_no_flow_0_20_0_0: flow_0_20_0_0 - 1000 edge_0_20_0_0 <= 0
 inactive_no_flow_1_2_0_0: flow_1_2_0_0 - 1000 edge_1_2_0_0 <= 0
 inactive_no_flow_1_3_0_0: flow_1_3_0_0 - 1000 edge_1_3_0_0 <= 0
 inactive_no_flow_1_4_0_0: flow_1_4_0_0 - 1000 edge_1_4_0_0 <= 0
 inactive_no_flow_1_5_0_0: flow_1_5_0_0 - 1000 edge_1_5_0_0 <= 0
 inactive_no_flow_1_6_0_0: flow_1_6_0_0 - 1000 edge_1_6_0_0 <= 0
 inactive_no_flow_1_7_0_0: flow_1_7_0_0 - 1000 edge_1_7_0_0 <= 0
 inactive_no_flow_1_9_0_0: flow_1_9_0_0 - 1000 edge_1_9_0_0 <= 0
 inactive_no_flow_2_1_0_0: flow_2_1_0_0 - 1000 edge_2_1_0_0 <= 0
 inactive_no_flow_2_3_0_0: flow_2_3_0_0 - 1000 edge_2_3_0_0 <= 0
 inactive_no_flow_2_4_0_0: flow_2_4_0_0 - 1000 edge_2_4_0_0 <= 0
 inactive_no_flow_2_5_0_0: flow_2_5_0_0 - 1000 edge_2_5_0_0 <= 0
 inactive_no_flow_2_6_0_0: flow_2_6_0_0 - 1000 edge_2_6_0_0 <= 0
 inactive_no_flow_2_7_0_0: flow_2_7_0_0 - 1000 edge_2_7_0_0 <= 0
 inactive_no_flow_2_8_0_0: flow_2_8_0_0 - 1000 edge_2_8_0_0 <= 0
 inactive_no_flow_2_9_0_0: flow_2_9_0_0 - 1000 edge_2_9_0_0 <= 0
 inactive_no_flow_2_11_0_0: flow_2_11_0_0 - 1000 edge_2_11_0_0 <= 0
 inactive_no_flow_2_12_0_0: flow_2_12_0_0 - 1000 edge_2_12_0_0 <= 0
 inactive_no_flow_2_13_0_0: flow_2_13_0_0 - 1000 edge_2_13_0_0 <= 0
 inactive_no_flow_2_16_0_0: flow_2_16_0_0 - 1000 edge_2_16_0_0 <= 0
 inactive_no_flow_2_20_0_0: flow_2_20_0_0 - 1000 edge_2_20_0_0 <= 0
 inactive_no_flow_2_21_0_0: flow_2_21_0_0 - 1000 edge_2_21_0_0 <= 0
 inactive_no_flow_3_1_0_0: flow_3_1_0_0 - 1000 edge_3_1_0_0 <= 0
 inactive_no_flow_3_2_0_0: flow_3_2_0_0 - 1000 edge_3_2_0_0 <= 0
 inactive_no_flow_3_4_0_0: flow_3_4_0_0 - 1000 edge_3_4_0_0 <= 0
 inactive_no_flow_3_5_0_0: flow_3_5_0_0 - 1000 edge_3_5_0_0 <= 0
 inactive_no_flow_3_7_0_0: flow_3_7_0_0 - 1000 edge_3_7_0_0 <= 0
 inactive_no_flow_3_8_0_0: flow_3_8_0_0 - 1000 edge_3_8_0_0 <= 0
 inactive_no_flow_3_9_0_0: flow_3_9_0_0 - 1000 edge_3_9_0_0 <= 0
 inactive_no_flow_3_12_0_0: flow_3_12_0_0 - 1000 edge_3_12_0_0 <= 0
 inactive_no_flow_3_13_0_0: flow_3_13_0_0 - 1000 edge_3_13_0_0 <= 0
 inactive_no_flow_3_15_0_0: flow_3_15_0_0 - 1000 edge_3_15_0_0 <= 0
 inactive_no_flow_3_16_0_0: flow_3_16_0_0 - 1000 edge_3_16_0_0 <= 0
 inactive_no_flow_3_18_0_0: flow_3_18_0_0 - 1000 edge_3_18_0_0 <= 0
 inactive_no_flow_3_20_0_0: flow_3_20_0_0 - 1000 edge_3_20_0_0 <= 0
 inactive_no_flow_4_1_0_0: flow_4_1_0_0 - 1000 edge_4_1_0_0 <= 0
 inactive_no_flow_4_2_0_0: flow_4_2_0_0 - 1000 edge_4_2_0_0 <= 0
 inactive_no_flow_4_3_0_0: flow_4_3_0_0 - 1000 edge_4_3_0_0 <= 0
 inactive_no_flow_4_4_0_0: flow_4_4_0_0 - 1000 edge_4_4_0_0 <= 0
 inactive_no_flow_4_5_0_0: flow_4_5_0_0 - 1000 edge_4_5_0_0 <= 0
 inactive_no_flow_4_6_0_0: flow_4_6_0_0 - 1000 edge_4_6_0_0 <= 0
 inactive_no_flow_4_7_0_0: flow_4_7_0_0 - 1000 edge_4_7_0_0 <= 0
 inactive_no_flow_4_8_0_0: flow_4_8_0_0 - 1000 edge_4_8_0_0 <= 0
 inactive_no_flow_4_9_0_0: flow_4_9_0_0 - 1000 edge_4_9_0_0 <= 0
 inactive_no_flow_5_1_0_0: flow_5_1_0_0 - 1000 edge_5_1_0_0 <= 0
 inactive_no_flow_5_2_0_0: flow_5_2_0_0 - 1000 edge_5_2_0_0 <= 0
 inactive_no_flow_5_3_0_0: flow_5_3_0_0 - 1000 edge_5_3_0_0 <= 0
 inactive_no_flow_5_4_0_0: flow_5_4_0_0 - 1000 edge_5_4_0_0 <= 0
 inactive_no_flow_5_6_0_0: flow_5_6_0_0 - 1000 edge_5_6_0_0 <= 0
 inactive_no_flow_5_7_0_0: flow_5_7_0_0 - 1000 edge_5_7_0_0 <= 0
 inactive_no_flow_5_8_0_0: flow_5_8_0_0 - 1000 edge_5_8_0_0 <= 0
 inactive_no_flow_5_9_0_0: flow_5_9_0_0 - 1000 edge_5_9_0_0 <= 0
 inactive_no_flow_5_11_0_0: flow_5_11_0_0 - 1000 edge_5_11_0_0 <= 0
 inactive_no_flow_5_12_0_0: flow_5_12_0_0 - 1000 edge_5_12_0_0 <= 0
 inactive_no_flow_5_13_0_0: flow_5_13_0_0 - 1000 edge_5_13_0_0 <= 0
 inactive_no_flow_5_14_0_0: flow_5_14_0_0 - 1000 edge_5_14_0_0 <= 0
 inactive_no_flow_5_15_0_0: flow_5_15_0_0 - 1000 edge_5_15_0_0 <= 0
 inactive_no_flow_5_16_0_0: flow_5_16_0_0 - 1000 edge_5_16_0_0 <= 0
 inactive_no_flow_5_17_0_0: flow_5_17_0_0 - 1000 edge_5_17_0_0 <= 0
 inactive_no_flow_5_18_0_0: flow_5_18_0_0 - 1000 edge_5_18_0_0 <= 0
 inactive_no_flow_5_20_0_0: flow_5_20_0_0 - 1000 edge_5_20_0_0 <= 0
 inactive_no_flow_5_21_0_0: flow_5_21_0_0 - 1000 edge_5_21_0_0 <= 0
 inactive_no_flow_6_2_0_0: flow_6_2_0_0 - 1000 edge_6_2_0_0 <= 0
 inactive_no_flow_6_4_0_0: flow_6_4_0_0 - 1000 edge_6_4_0_0 <= 0
 inactive_no_flow_6_5_0_0: flow_6_5_0_0 - 1000 edge_6_5_0_0 <= 0
 inactive_no_flow_6_8_0_0: flow_6_8_0_0 - 1000 edge_6_8_0_0 <= 0
 inactive_no_flow_6_9_0_0: flow_6_9_0_0 - 1000 edge_6_9_0_0 <= 0
 inactive_no_flow_7_2_0_0: flow_7_2_0_0 - 1000 edge_7_2_0_0 <= 0
 inactive_no_flow_7_5_0_0: flow_7_5_0_0 - 1000 edge_7_5_0_0 <= 0
 inactive_no_flow_7_8_0_0: flow_7_8_0_0 - 1000 edge_7_8_0_0 <= 0
 inactive_no_flow_7_9_0_0: flow_7_9_0_0 - 1000 edge_7_9_0_0 <= 0
 inactive_no_flow_8_5_0_0: flow_8_5_0_0 - 1000 edge_8_5_0_0 <= 0
 inactive_no_flow_8_7_0_0: flow_8_7_0_0 - 1000 edge_8_7_0_0 <= 0
 inactive_no_flow_8_9_0_0: flow_8_9_0_0 - 1000 edge_8_9_0_0 <= 0
 inactive_no_flow_8_11_0_0: flow_8_11_0_0 - 1000 edge_8_11_0_0 <= 0
 inactive_no_flow_8_12_0_0: flow_8_12_0_0 - 1000 edge_8_12_0_0 <= 0
 inactive_no_flow_8_13_0_0: flow_8_13_0_0 - 1000 edge_8_13_0_0 <= 0
 inactive_no_flow_8_15_0_0: flow_8_15_0_0 - 1000 edge_8_15_0_0 <= 0
 inactive_no_flow_8_16_0_0: flow_8_16_0_0 - 1000 edge_8_16_0_0 <= 0
 inactive_no_flow_8_18_0_0: flow_8_18_0_0 - 1000 edge_8_18_0_0 <= 0
 inactive_no_flow_9_1_0_0: flow_9_1_0_0 - 1000 edge_9_1_0_0 <= 0
 inactive_no_flow_9_2_0_0: flow_9_2_0_0 - 1000 edge_9_2_0_0 <= 0
 inactive_no_flow_9_3_0_0: flow_9_3_0_0 - 1000 edge_9_3_0_0 <= 0
 inactive_no_flow_9_4_0_0: flow_9_4_0_0 - 1000 edge_9_4_0_0 <= 0
 inactive_no_flow_9_5_0_0: flow_9_5_0_0 - 1000 edge_9_5_0_0 <= 0
 inactive_no_flow_9_6_0_0: flow_9_6_0_0 - 1000 edge_9_6_0_0 <= 0
 inactive_no_flow_9_7_0_0: flow_9_7_0_0 - 1000 edge_9_7_0_0 <= 0
 inactive_no_flow_9_8_0_0: flow_9_8_0_0 - 1000 edge_9_8_0_0 <= 0
 inactive_no_flow_9_11_0_0: flow_9_11_0_0 - 1000 edge_9_11_0_0 <= 0
 inactive_no_flow_9_12_0_0: flow_9_12_0_0 - 1000 edge_9_12_0_0 <= 0
 inactive_no_flow_9_13_0_0: flow_9_13_0_0 - 1000 edge_9_13_0_0 <= 0
 inactive_no_flow_9_14_0_0: flow_9_14_0_0 - 1000 edge_9_14_0_0 <= 0
 inactive_no_flow_9_15_0_0: flow_9_15_0_0 - 1000 edge_9_15_0_0 <= 0
 inactive_no_flow_9_16_0_0: flow_9_16_0_0 - 1000 edge_9_16_0_0 <= 0
 inactive_no_flow_9_17_0_0: flow_9_17_0_0 - 1000 edge_9_17_0_0 <= 0
 inactive_no_flow_9_18_0_0: flow_9_18_0_0 - 1000 edge_9_18_0_0 <= 0
 inactive_no_flow_9_20_0_0: flow_9_20_0_0 - 1000 edge_9_20_0_0 <= 0
 inactive_no_flow_9_21_0_0: flow_9_21_0_0 - 1000 edge_9_21_0_0 <= 0
 inactive_no_flow_11_14_0_0: flow_11_14_0_0 - 1000 edge_11_14_0_0 <= 0
 inactive_no_flow_11_16_0_0: flow_11_16_0_0 - 1000 edge_11_16_0_0 <= 0
 inactive_no_flow_12_1_0_0: flow_12_1_0_0 - 1000 edge_12_1_0_0 <= 0
 inactive_no_flow_12_2_0_0: flow_12_2_0_0 - 1000 edge_12_2_0_0 <= 0
 inactive_no_flow_12_3_0_0: flow_12_3_0_0 - 1000 edge_12_3_0_0 <= 0
 inactive_no_flow_12_4_0_0: flow_12_4_0_0 - 1000 edge_12_4_0_0 <= 0
 inactive_no_flow_12_5_0_0: flow_12_5_0_0 - 1000 edge_12_5_0_0 <= 0
 inactive_no_flow_12_6_0_0: flow_12_6_0_0 - 1000 edge_12_6_0_0 <= 0
 inactive_no_flow_12_7_0_0: flow_12_7_0_0 - 1000 edge_12_7_0_0 <= 0
 inactive_no_flow_12_8_0_0: flow_12_8_0_0 - 1000 edge_12_8_0_0 <= 0
 inactive_no_flow_12_9_0_0: flow_12_9_0_0 - 1000 edge_12_9_0_0 <= 0
 inactive_no_flow_12_11_0_0: flow_12_11_0_0 - 1000 edge_12_11_0_0 <= 0
 inactive_no_flow_12_13_0_0: flow_12_13_0_0 - 1000 edge_12_13_0_0 <= 0
 inactive_no_flow_12_14_0_0: flow_12_14_0_0 - 1000 edge_12_14_0_0 <= 0
 inactive_no_flow_12_15_0_0: flow_12_15_0_0 - 1000 edge_12_15_0_0 <= 0
 inactive_no_flow_12_16_0_0: flow_12_16_0_0 - 1000 edge_12_16_0_0 <= 0
 inactive_no_flow_12_17_0_0: flow_12_17_0_0 - 1000 edge_12_17_0_0 <= 0
 inactive_no_flow_12_18_0_0: flow_12_18_0_0 - 1000 edge_12_18_0_0 <= 0
 inactive_no_flow_12_20_0_0: flow_12_20_0_0 - 1000 edge_12_20_0_0 <= 0
 inactive_no_flow_12_21_0_0: flow_12_21_0_0 - 1000 edge_12_21_0_0 <= 0
 inactive_no_flow_13_11_0_0: flow_13_11_0_0 - 1000 edge_13_11_0_0 <= 0
 inactive_no_flow_13_12_0_0: flow_13_12_0_0 - 1000 edge_13_12_0_0 <= 0
 inactive_no_flow_13_14_0_0: flow_13_14_0_0 - 1000 edge_13_14_0_0 <= 0
 inactive_no_flow_13_16_0_0: flow_13_16_0_0 - 1000 edge_13_16_0_0 <= 0
 inactive_no_flow_14_1_0_0: flow_14_1_0_0 - 1000 edge_14_1_0_0 <= 0
 inactive_no_flow_14_2_0_0: flow_14_2_0_0 - 1000 edge_14_2_0_0 <= 0
 inactive_no_flow_14_3_0_0: flow_14_3_0_0 - 1000 edge_14_3_0_0 <= 0
 inactive_no_flow_14_5_0_0: flow_14_5_0_0 - 1000 edge_14_5_0_0 <= 0
 inactive_no_flow_14_7_0_0: flow_14_7_0_0 - 1000 edge_14_7_0_0 <= 0
 inactive_no_flow_14_9_0_0: flow_14_9_0_0 - 1000 edge_14_9_0_0 <= 0
 inactive_no_flow_14_12_0_0: flow_14_12_0_0 - 1000 edge_14_12_0_0 <= 0
 inactive_no_flow_14_13_0_0: flow_14_13_0_0 - 1000 edge_14_13_0_0 <= 0
 inactive_no_flow_14_15_0_0: flow_14_15_0_0 - 1000 edge_14_15_0_0 <= 0
 inactive_no_flow_14_17_0_0: flow_14_17_0_0 - 1000 edge_14_17_0_0 <= 0
 inactive_no_flow_14_18_0_0: flow_14_18_0_0 - 1000 edge_14_18_0_0 <= 0
 inactive_no_flow_14_20_0_0: flow_14_20_0_0 - 1000 edge_14_20_0_0 <= 0
 inactive_no_flow_14_21_0_0: flow_14_21_0_0 - 1000 edge_14_21_0_0 <= 0
 inactive_no_flow_15_3_0_0: flow_15_3_0_0 - 1000 edge_15_3_0_0 <= 0
 inactive_no_flow_15_12_0_0: flow_15_12_0_0 - 1000 edge_15_12_0_0 <= 0
 inactive_no_flow_15_13_0_0: flow_15_13_0_0 - 1000 edge_15_13_0_0 <= 0
 inactive_no_flow_15_14_0_0: flow_15_14_0_0 - 1000 edge_15_14_0_0 <= 0
 inactive_no_flow_15_16_0_0: flow_15_16_0_0 - 1000 edge_15_16_0_0 <= 0
 inactive_no_flow_15_17_0_0: flow_15_17_0_0 - 1000 edge_15_17_0_0 <= 0
 inactive_no_flow_15_18_0_0: flow_15_18_0_0 - 1000 edge_15_18_0_0 <= 0
 inactive_no_flow_15_20_0_0: flow_15_20_0_0 - 1000 edge_15_20_0_0 <= 0
 inactive_no_flow_15_21_0_0: flow_15_21_0_0 - 1000 edge_15_21_0_0 <= 0
 inactive_no_flow_16_1_0_0: flow_16_1_0_0 - 1000 edge_16_1_0_0 <= 0
 inactive_no_flow_16_2_0_0: flow_16_2_0_0 - 1000 edge_16_2_0_0 <= 0
 inactive_no_flow_16_3_0_0: flow_16_3_0_0 - 1000 edge_16_3_0_0 <= 0
 inactive_no_flow_16_4_0_0: flow_16_4_0_0 - 1000 edge_16_4_0_0 <= 0
 inactive_no_flow_16_5_0_0: flow_16_5_0_0 - 1000 edge_16_5_0_0 <= 0
 inactive_no_flow_16_6_0_0: flow_16_6_0_0 - 1000 edge_16_6_0_0 <= 0
 inactive_no_flow_16_7_0_0: flow_16_7_0_0 - 1000 edge_16_7_0_0 <= 0
 inactive_no_flow_16_8_0_0: flow_16_8_0_0 - 1000 edge_16_8_0_0 <= 0
 inactive_no_flow_16_9_0_0: flow_16_9_0_0 - 1000 edge_16_9_0_0 <= 0
 inactive_no_flow_16_11_0_0: flow_16_11_0_0 - 1000 edge_16_11_0_0 <= 0
 inactive_no_flow_16_12_0_0: flow_16_12_0_0 - 1000 edge_16_12_0_0 <= 0
 inactive_no_flow_16_13_0_0: flow_16_13_0_0 - 1000 edge_16_13_0_0 <= 0
 inactive_no_flow_16_14_0_0: flow_16_14_0_0 - 1000 edge_16_14_0_0 <= 0
 inactive_no_flow_16_15_0_0: flow_16_15_0_0 - 1000 edge_16_15_0_0 <= 0
 inactive_no_flow_16_17_0_0: flow_16_17_0_0 - 1000 edge_16_17_0_0 <= 0
 inactive_no_flow_16_18_0_0: flow_16_18_0_0 - 1000 edge_16_18_0_0 <= 0
 inactive_no_flow_16_20_0_0: flow_16_20_0_0 - 1000 edge_16_20_0_0 <= 0
 inactive_no_flow_16_21_0_0: flow_16_21_0_0 - 1000 edge_16_21_0_0 <= 0
 inactive_no_flow_17_14_0_0: flow_17_14_0_0 - 1000 edge_17_14_0_0 <= 0
 inactive_no_flow_17_15_0_0: flow_17_15_0_0 - 1000 edge_17_15_0_0 <= 0
 inactive_no_flow_17_18_0_0: flow_17_18_0_0 - 1000 edge_17_18_0_0 <= 0
 inactive_no_flow_17_20_0_0: flow_17_20_0_0 - 1000 edge_17_20_0_0 <= 0
 inactive_no_flow_17_21_0_0: flow_17_21_0_0 - 1000 edge_17_21_0_0 <= 0
 inactive_no_flow_18_13_0_0: flow_18_13_0_0 - 1000 edge_18_13_0_0 <= 0
 inactive_no_flow_18_14_0_0: flow_18_14_0_0 - 1000 edge_18_14_0_0 <= 0
 inactive_no_flow_18_15_0_0: flow_18_15_0_0 - 1000 edge_18_15_0_0 <= 0
 inactive_no_flow_18_16_0_0: flow_18_16_0_0 - 1000 edge_18_16_0_0 <= 0
 inactive_no_flow_18_17_0_0: flow_18_17_0_0 - 1000 edge_18_17_0_0 <= 0
 inactive_no_flow_18_20_0_0: flow_18_20_0_0 - 1000 edge_18_20_0_0 <= 0
 inactive_no_flow_18_21_0_0: flow_18_21_0_0 - 1000 edge_18_21_0_0 <= 0
 inactive_no_flow_20_1_0_0: flow_20_1_0_0 - 1000 edge_20_1_0_0 <= 0
 inactive_no_flow_20_2_0_0: flow_20_2_0_0 - 1000 edge_20_2_0_0 <= 0
 inactive_no_flow_20_3_0_0: flow_20_3_0_0 - 1000 edge_20_3_0_0 <= 0
 inactive_no_flow_20_4_0_0: flow_20_4_0_0 - 1000 edge_20_4_0_0 <= 0
 inactive_no_flow_20_5_0_0: flow_20_5_0_0 - 1000 edge_20_5_0_0 <= 0
 inactive_no_flow_20_7_0_0: flow_20_7_0_0 - 1000 edge_20_7_0_0 <= 0
 inactive_no_flow_20_9_0_0: flow_20_9_0_0 - 1000 edge_20_9_0_0 <= 0
 inactive_no_flow_20_11_0_0: flow_20_11_0_0 - 1000 edge_20_11_0_0 <= 0
 inactive_no_flow_20_12_0_0: flow_20_12_0_0 - 1000 edge_20_12_0_0 <= 0
 inactive_no_flow_20_13_0_0: flow_20_13_0_0 - 1000 edge_20_13_0_0 <= 0
 inactive_no_flow_20_14_0_0: flow_20_14_0_0 - 1000 edge_20_14_0_0 <= 0
 inactive_no_flow_20_15_0_0: flow_20_15_0_0 - 1000 edge_20_15_0_0 <= 0
 inactive_no_flow_20_17_0_0: flow_20_17_0_0 - 1000 edge_20_17_0_0 <= 0
 inactive_no_flow_20_18_0_0: flow_20_18_0_0 - 1000 edge_20_18_0_0 <= 0
 inactive_no_flow_20_21_0_0: flow_20_21_0_0 - 1000 edge_20_21_0_0 <= 0
 inactive_no_flow_21_18_0_0: flow_21_18_0_0 - 1000 edge_21_18_0_0 <= 0
 inactive_no_flow_21_20_0_0: flow_21_20_0_0 - 1000 edge_21_20_0_0 <= 0
Bounds
Binaries
 edge_0_1_0_0 edge_0_2_0_0 edge_0_3_0_0 edge_0_5_0_0 edge_0_8_0_0
 edge_0_9_0_0 edge_0_12_0_0 edge_0_16_0_0 edge_0_17_0_0 edge_0_20_0_0
 edge_1_2_0_0 edge_1_3_0_0 edge_1_4_0_0 edge_1_5_0_0 edge_1_6_0_0
 edge_1_7_0_0 edge_1_9_0_0 edge_2_1_0_0 edge_2_3_0_0 edge_2_4_0_0
 edge_2_5_0_0 edge_2_6_0_0 edge_2_7_0_0 edge_2_8_0_0 edge_2_9_0_0
 edge_2_11_0_0 edge_2_12_0_0 edge_2_13_0_0 edge_2_16_0_0 edge_2_20_0_0
 edge_2_21_0_0 edge_3_1_0_0 edge_3_2_0_0 edge_3_4_0_0 edge_3_5_0_0
 edge_3_7_0_0 edge_3_8_0_0 edge_3_9_0_0 edge_3_12_0_0 edge_3_13_0_0
 edge_3_15_0_0 edge_3_16_0_0 edge_3_18_0_0 edge_3_20_0_0 edge_4_1_0_0
 edge_4_2_0_0 edge_4_3_0_0 edge_4_4_0_0 edge_4_5_0_0 edge_4_6_0_0
 edge_4_7_0_0 edge_4_8_0_0 edge_4_9_0_0 edge_5_1_0_0 edge_5_2_0_0
 edge_5_3_0_0 edge_5_4_0_0 edge_5_6_0_0 edge_5_7_0_0 edge_5_8_0_0
 edge_5_9_0_0 edge_5_11_0_0 edge_5_12_0_0 edge_5_13_0_0 edge_5_14_0_0
 edge_5_15_0_0 edge_5_16_0_0 edge_5_17_0_0 edge_5_18_0_0 edge_5_20_0_0
 edge_5_21_0_0 edge_6_2_0_0 edge_6_4_0_0 edge_6_5_0_0 edge_6_8_0_0
 edge_6_9_0_0 edge_7_2_0_0 edge_7_5_0_0 edge_7_8_0_0 edge_7_9_0_0
 edge_8_5_0_0 edge_8_7_0_0 edge_8_9_0_0 edge_8_11_0_0 edge_8_12_0_0
 edge_8_13_0_0 edge_8_15_0_0 edge_8_16_0_0 edge_8_18_0_0 edge_9_1_0_0
 edge_9_2_0_0 edge_9_3_0_0 edge_9_4_0_0 edge_9_5_0_0 edge_9_6_0_0
 edge_9_7_0_0 edge_9_8_0_0 edge_9_11_0_0 edge_9_12_0_0 edge_9_13_0_0
 edge_9_14_0_0 edge_9_15_0_0 edge_9_16_0_0 edge_9_17_0_0 edge_9_18_0_0
 edge_9_20_0_0 edge_9_21_0_0 edge_11_14_0_0 edge_11_16_0_0 edge_12_1_0_0
 edge_12_2_0_0 edge_12_3_0_0 edge_12_4_0_0 edge_12_5_0_0 edge_12_6_0_0
 edge_12_7_0_0 edge_12_8_0_0 edge_12_9_0_0 edge_12_11_0_0 edge_12_13_0_0
 edge_12_14_0_0 edge_12_15_0_0 edge_12_16_0_0 edge_12_17_0_0 edge_12_18_0_0
 edge_12_20_0_0 edge_12_21_0_0 edge_13_11_0_0 edge_13_12_0_0 edge_13_14_0_0
 edge_13_16_0_0 edge_14_1_0_0 edge_14_2_0_0 edge_14_3_0_0 edge_14_5_0_0
 edge_14_7_0_0 edge_14_9_0_0 edge_14_12_0_0 edge_14_13_0_0 edge_14_15_0_0
 edge_14_17_0_0 edge_14_18_0_0 edge_14_20_0_0 edge_14_21_0_0 edge_15_3_0_0
 edge_15_12_0_0 edge_15_13_0_0 edge_15_14_0_0 edge_15_16_0_0 edge_15_17_0_0
 edge_15_18_0_0 edge_15_20_0_0 edge_15_21_0_0 edge_16_1_0_0 edge_16_2_0_0
 edge_16_3_0_0 edge_16_4_0_0 edge_16_5_0_0 edge_16_6_0_0 edge_16_7_0_0
 edge_16_8_0_0 edge_16_9_0_0 edge_16_11_0_0 edge_16_12_0_0 edge_16_13_0_0
 edge_16_14_0_0 edge_16_15_0_0 edge_16_17_0_0 edge_16_18_0_0 edge_16_20_0_0
 edge_16_21_0_0 edge_17_14_0_0 edge_17_15_0_0 edge_17_18_0_0 edge_17_20_0_0
 edge_17_21_0_0 edge_18_13_0_0 edge_18_14_0_0 edge_18_15_0_0 edge_18_16_0_0
 edge_18_17_0_0 edge_18_20_0_0 edge_18_21_0_0 edge_20_1_0_0 edge_20_2_0_0
 edge_20_3_0_0 edge_20_4_0_0 edge_20_5_0_0 edge_20_7_0_0 edge_20_9_0_0
 edge_20_11_0_0 edge_20_12_0_0 edge_20_13_0_0 edge_20_14_0_0 edge_20_15_0_0
 edge_20_17_0_0 edge_20_18_0_0 edge_20_21_0_0 edge_21_18_0_0 edge_21_20_0_0
End
